(set-info :smt-lib-version 2.6)
(set-logic QF_S)
(set-info :source |
Generated by: Murphy Berzish, Mitja Kulczynski, Federico Mora, Florin Manea, Joel Day, Dirk Nowotka, Vijay Ganesh, Zhengyang Lu
Generated on: 2020-10-01
Description: Translated from a collection of real-world regex queries, AutomataArk, collected by Loris D’Antoni and Fang Wang: https://github.com/lorisdanto/automatark
Application: Evaluate solvers on real-world regex queries
Target solver: Z3str3RE, CVC4, OSTRICH, Z3seq, Z3str3, Z3-Trau
Publications: Berzish, M., Kulczynski, M., Mora, F., Manea, F., Day, J. D., Nowotka, D., & Ganesh, V. (2021, July). An SMT solver for regular expressions and linear arithmetic over string length. In CAV 2021.
|)
(set-info :license "https://creativecommons.org/licenses/by/4.0/")
(set-info :category "industrial")
(set-info :status sat)

(declare-const X String)
(assert (not (str.in_re X (re.++ (str.to_re "//html/license_.html/Ui\u{a}") ((_ re.loop 550 550) (re.union (re.range "0" "9") (re.range "A" "F"))) (re.* (re.union (re.range "0" "9") (re.range "A" "F")))))))
(assert (not (str.in_re X (re.++ (re.* (re.union (re.range "0" "9") (re.range "a" "f") (re.range "A" "F"))) (str.to_re "\u{a}")))))
(assert (not (str.in_re X (re.++ (str.to_re "frame_ver2") (re.+ (re.union (str.to_re " ") (str.to_re "\u{9}") (str.to_re "\u{a}") (str.to_re "\u{c}") (str.to_re "\u{d}"))) (str.to_re "www.urlblaze.net") (re.+ (re.union (str.to_re " ") (str.to_re "\u{9}") (str.to_re "\u{a}") (str.to_re "\u{c}") (str.to_re "\u{d}"))) (str.to_re "source=IncrediFind") (re.+ (re.union (str.to_re " ") (str.to_re "\u{9}") (str.to_re "\u{a}") (str.to_re "\u{c}") (str.to_re "\u{d}"))) (str.to_re "AgentHost:Host:Host:/GRSpynova3AFrom:\u{a}")))))
(assert (not (str.in_re X (re.++ (str.to_re "\u{a}'") (re.* (re.union (re.++ (str.to_re "\u{5c}") re.allchar) (str.to_re "\u{5c}") (str.to_re "'"))) (str.to_re "'")))))
(assert (str.in_re X (re.++ (str.to_re "/filename=") (re.* (re.comp (str.to_re "\u{a}"))) (str.to_re ".maplet/i\u{a}"))))
(check-sat)

(exit)
